2025-10-24 19:51:36,742 - INFO - 📌 第一个 epoch：默认所有模块使用 checkpoint
2025-10-24 20:14:43,356 - INFO - Epoch 1 completed in 1386.626846 seconds
2025-10-24 20:22:26,204 - INFO - torch.cuda.max_memory_reserved() : 0.560546875
2025-10-24 20:45:44,185 - INFO - 
[🔁 拟合反向传播时间模型]
2025-10-24 20:45:44,185 - INFO - 总反向传播时间: 1390.994760s
2025-10-24 20:45:44,185 - INFO - 拟合模型: backward_total ≈ 2 × (A + B) + b
2025-10-24 20:45:44,185 - INFO - A = 856.458938, B = 68.341159, b = 466.194663s
2025-10-24 20:45:44,229 - INFO - Set parameter LicenseID to value 2706656
2025-10-24 20:45:44,236 - INFO - Set parameter LogToConsole to value 1
2025-10-24 20:45:44,237 - INFO - Set parameter LogFile to value ""
2025-10-24 20:45:44,237 - INFO - Set parameter Threads to value 12
2025-10-24 20:45:44,237 - INFO - Set parameter TimeLimit to value 3600
2025-10-24 20:45:44,237 - INFO - Set parameter OptimalityTol to value 0.0001
2025-10-24 20:45:44,237 - INFO - Set parameter IntFeasTol to value 1e-05
2025-10-24 20:45:44,237 - INFO - Set parameter StartNodeLimit to value 10000000
2025-10-24 20:45:44,293 - INFO - Set parameter TimeLimit to value 3600
2025-10-24 20:45:44,293 - INFO - 
2025-10-24 20:45:44,293 - INFO - 
2025-10-24 20:45:44,294 - INFO - Restarting solve
2025-10-24 20:45:44,294 - INFO - 
2025-10-24 20:45:44,294 - INFO - 
2025-10-24 20:45:44,295 - INFO - Gurobi Optimizer version 12.0.3 build v12.0.3rc0 (linux64 - "Ubuntu 20.04.6 LTS")
2025-10-24 20:45:44,296 - INFO - 
2025-10-24 20:45:44,296 - INFO - CPU model: Intel(R) Xeon(R) Platinum 8260 CPU @ 2.40GHz, instruction set [SSE2|AVX|AVX2|AVX512]
2025-10-24 20:45:44,296 - INFO - Thread count: 48 physical cores, 96 logical processors, using up to 12 threads
2025-10-24 20:45:44,296 - INFO - 
2025-10-24 20:45:44,296 - INFO - Non-default parameters:
2025-10-24 20:45:44,296 - INFO - TimeLimit  3600
2025-10-24 20:45:44,296 - INFO - OptimalityTol  0.0001
2025-10-24 20:45:44,296 - INFO - StartNodeLimit  10000000
2025-10-24 20:45:44,296 - INFO - Threads  12
2025-10-24 20:45:44,296 - INFO - 
2025-10-24 20:45:44,296 - INFO - Optimize a model with 5603 rows, 3584 columns and 15200 nonzeros
2025-10-24 20:45:44,296 - INFO - Model fingerprint: 0xc66369da
2025-10-24 20:45:44,296 - INFO - Variable types: 1024 continuous, 2560 integer (2560 binary)
2025-10-24 20:45:44,296 - INFO - Coefficient statistics:
2025-10-24 20:45:44,296 - INFO -   Matrix range     [1e+00, 2e+14]
2025-10-24 20:45:44,296 - INFO -   Objective range  [4e+04, 2e+05]
2025-10-24 20:45:44,296 - INFO -   Bounds range     [1e+00, 6e+15]
2025-10-24 20:45:44,296 - INFO -   RHS range        [1e+00, 6e+15]
2025-10-24 20:45:44,296 - INFO - Warning: Model contains large matrix coefficient range
2025-10-24 20:45:44,296 - INFO - Warning: Model contains large rhs
2025-10-24 20:45:44,297 - INFO - Warning: Model contains large bounds
2025-10-24 20:45:44,297 - INFO -          Consider reformulating model or setting NumericFocus parameter
2025-10-24 20:45:44,297 - INFO -          to avoid numerical issues.
2025-10-24 20:45:44,311 - INFO - Presolve removed 4443 rows and 2130 columns
2025-10-24 20:45:44,312 - INFO - Presolve time: 0.01s
2025-10-24 20:45:44,312 - INFO - Presolved: 1160 rows, 1454 columns, 4180 nonzeros
2025-10-24 20:45:44,313 - INFO - Variable types: 0 continuous, 1454 integer (1085 binary)
2025-10-24 20:45:44,316 - INFO - Found heuristic solution: objective 1.568520e+07
2025-10-24 20:45:44,318 - INFO - Found heuristic solution: objective 4687418.0000
2025-10-24 20:45:44,319 - INFO - Found heuristic solution: objective 4334382.0000
2025-10-24 20:45:44,321 - INFO - Found heuristic solution: objective 4314958.0000
2025-10-24 20:45:44,324 - INFO - 
2025-10-24 20:45:44,324 - INFO - Root relaxation: objective 2.889588e+06, 448 iterations, 0.00 seconds (0.00 work units)
2025-10-24 20:45:44,332 - INFO - 
2025-10-24 20:45:44,332 - INFO -     Nodes    |    Current Node    |     Objective Bounds      |     Work
2025-10-24 20:45:44,333 - INFO -  Expl Unexpl |  Obj  Depth IntInf | Incumbent    BestBd   Gap | It/Node Time
2025-10-24 20:45:44,333 - INFO - 
2025-10-24 20:45:44,333 - INFO -      0     0 2889588.00    0   12 4314958.00 2889588.00  33.0%     -    0s
2025-10-24 20:45:44,335 - INFO - H    0     0                    4254635.0000 2889588.00  32.1%     -    0s
2025-10-24 20:45:44,337 - INFO - H    0     0                    2889588.0000 2889588.00  0.00%     -    0s
2025-10-24 20:45:44,337 - INFO -      0     0 2889588.00    0   12 2889588.00 2889588.00  0.00%     -    0s
2025-10-24 20:45:44,339 - INFO - 
2025-10-24 20:45:44,339 - INFO - Explored 1 nodes (629 simplex iterations) in 0.04 seconds (0.03 work units)
2025-10-24 20:45:44,339 - INFO - Thread count was 12 (of 96 available processors)
2025-10-24 20:45:44,339 - INFO - 
2025-10-24 20:45:44,339 - INFO - Solution count 6: 2.88959e+06 4.25464e+06 4.31496e+06 ... 1.56852e+07
2025-10-24 20:45:44,339 - INFO - 
2025-10-24 20:45:44,339 - INFO - Optimal solution found (tolerance 1.00e-04)
2025-10-24 20:45:44,339 - INFO - Best objective 2.889588000000e+06, best bound 2.889588000000e+06, gap 0.0000%
2025-10-24 20:45:44,350 - INFO - 规划前的显存GB：5.0
2025-10-24 20:45:44,350 - INFO - 规划后的显存GB：1.4015579223632812
2025-10-24 20:45:44,350 - INFO - ✅ 最优策略：[1, 1, 1, 1, 1, 1, 1, 1, 1, 1, 1, 1, 1, 1, 1, 1]
2025-10-24 20:45:44,350 - INFO - 📌 checkpoint 的欧氏长度:, []
2025-10-24 20:45:44,350 - INFO - 📌 checkpoint 的余弦长度:, []
2025-10-24 20:45:44,350 - INFO - 💾 最终显存峰值：%.2f MB % 1269.9289474487305
2025-10-24 20:45:44,351 - INFO - Epoch 2 completed in 1398.143062 seconds
2025-10-24 20:45:44,351 - INFO - torch.cuda.max_memory_reserved() : 0.560546875
2025-10-24 21:02:37,611 - INFO - Epoch 3 completed in 1013.256712 seconds
2025-10-24 21:02:37,611 - INFO - 
====================== [第1个 Epoch 收集统计数据] ======================
2025-10-24 21:02:37,611 - INFO - 
🔍 EUCLIDEAN modules:
2025-10-24 21:02:37,611 - INFO - [Shapelet 128] forward_avg=0.001351s over 10912 calls | peak=14.80MB | final=0.00MB
2025-10-24 21:02:37,611 - INFO - [Shapelet 694] forward_avg=0.001336s over 10912 calls | peak=72.14MB | final=0.00MB
2025-10-24 21:02:37,611 - INFO - [Shapelet 1261] forward_avg=0.001331s over 10912 calls | peak=114.19MB | final=0.00MB
2025-10-24 21:02:37,611 - INFO - [Shapelet 1828] forward_avg=0.001341s over 10912 calls | peak=138.23MB | final=0.00MB
2025-10-24 21:02:37,611 - INFO - [Shapelet 2395] forward_avg=0.001430s over 10912 calls | peak=150.28MB | final=0.00MB
2025-10-24 21:02:37,611 - INFO - [Shapelet 2962] forward_avg=0.001487s over 10912 calls | peak=146.73MB | final=0.00MB
2025-10-24 21:02:37,611 - INFO - [Shapelet 3529] forward_avg=0.001537s over 10912 calls | peak=128.99MB | final=0.00MB
2025-10-24 21:02:37,611 - INFO - [Shapelet 4096] forward_avg=0.001503s over 10912 calls | peak=96.53MB | final=0.00MB
2025-10-24 21:02:37,611 - INFO - 
🔍 COSINE modules:
2025-10-24 21:02:37,611 - INFO - [Shapelet 128] forward_avg=0.001910s over 10912 calls | peak=9.79MB | final=0.00MB
2025-10-24 21:02:37,611 - INFO - [Shapelet 694] forward_avg=0.001788s over 10912 calls | peak=48.03MB | final=0.00MB
2025-10-24 21:02:37,612 - INFO - [Shapelet 1261] forward_avg=0.001787s over 10912 calls | peak=76.03MB | final=0.00MB
2025-10-24 21:02:37,612 - INFO - [Shapelet 1828] forward_avg=0.001785s over 10912 calls | peak=92.03MB | final=0.00MB
2025-10-24 21:02:37,612 - INFO - [Shapelet 2395] forward_avg=0.001861s over 10912 calls | peak=100.02MB | final=0.00MB
2025-10-24 21:02:37,612 - INFO - [Shapelet 2962] forward_avg=0.001829s over 10912 calls | peak=97.60MB | final=0.00MB
2025-10-24 21:02:37,612 - INFO - [Shapelet 3529] forward_avg=0.002097s over 10912 calls | peak=85.74MB | final=0.00MB
2025-10-24 21:02:37,612 - INFO - [Shapelet 4096] forward_avg=0.001789s over 10912 calls | peak=64.07MB | final=0.00MB
2025-10-24 21:02:37,612 - INFO - 
🔍 CROSS modules:
2025-10-24 21:02:37,612 - INFO - [Shapelet 128] forward_avg=0.000377s over 10912 calls
2025-10-24 21:02:37,612 - INFO - [Shapelet 694] forward_avg=0.000365s over 10912 calls
2025-10-24 21:02:37,612 - INFO - [Shapelet 1261] forward_avg=0.000362s over 10912 calls
2025-10-24 21:02:37,612 - INFO - [Shapelet 1828] forward_avg=0.000362s over 10912 calls
2025-10-24 21:02:37,612 - INFO - [Shapelet 2395] forward_avg=0.000382s over 10912 calls
2025-10-24 21:02:37,612 - INFO - [Shapelet 2962] forward_avg=0.000399s over 10912 calls
2025-10-24 21:02:37,612 - INFO - [Shapelet 3529] forward_avg=0.000428s over 10912 calls
2025-10-24 21:02:37,612 - INFO - [Shapelet 4096] forward_avg=0.000457s over 10912 calls
2025-10-24 21:02:37,612 - INFO - 
💾 模型第一次反向传播阶段的显存峰值（所有模块中的最大值）: 1211.74 MB
2025-10-24 21:02:37,612 - INFO - 
💾 模型初始显存: 3.17 MB
2025-10-24 21:02:37,612 - INFO - =======================================================================

2025-10-24 21:02:37,612 - INFO - torch.cuda.max_memory_reserved() : 1.310546875
2025-10-24 21:19:52,949 - INFO - Epoch 4 completed in 1035.331929 seconds
2025-10-24 21:19:52,950 - INFO - torch.cuda.max_memory_reserved() : 1.310546875
2025-10-24 21:38:41,573 - INFO - Epoch 5 completed in 1128.619880 seconds
2025-10-24 21:38:41,574 - INFO - torch.cuda.max_memory_reserved() : 1.310546875
2025-10-24 21:55:54,366 - INFO - Epoch 6 completed in 1032.787946 seconds
2025-10-24 21:55:54,366 - INFO - torch.cuda.max_memory_reserved() : 1.310546875
2025-10-24 22:13:18,625 - INFO - Epoch 7 completed in 1044.255163 seconds
2025-10-24 22:13:18,626 - INFO - torch.cuda.max_memory_reserved() : 1.310546875
2025-10-24 22:30:33,784 - INFO - Epoch 8 completed in 1035.154872 seconds
2025-10-24 22:30:33,784 - INFO - torch.cuda.max_memory_reserved() : 1.310546875
2025-10-24 22:48:05,593 - INFO - Epoch 9 completed in 1051.804578 seconds
2025-10-24 22:48:05,594 - INFO - torch.cuda.max_memory_reserved() : 1.310546875
2025-10-24 23:05:46,981 - INFO - Epoch 10 completed in 1061.382726 seconds
2025-10-24 23:12:35,676 - INFO - torch.cuda.max_memory_reserved() : 1.310546875
2025-10-24 23:12:35,681 - INFO - !!!采用策略后的几个epoch 平均时间:1050.3242258429527
2025-10-24 23:12:35,682 - INFO - 



